\ This file has been generated by DOcplex
\ ENCODING=ISO-8859-1
\Problem name: random_problem.lp

Minimize
 obj: - 196 x0 - 98 x1 + 562 x2 + 281 x3 - 254 x4 - 127 x5 + 90 x6 + 45 x7
      - 258 x8 - 129 x9 - 110 x10 - 55 x11 + [ 344 x0^2 + 344 x0*x1 + 368 x0*x2
      + 184 x0*x3 + 224 x0*x4 + 112 x0*x5 + 192 x0*x6 + 96 x0*x7 + 112 x0*x8
      + 56 x0*x9 + 944 x0*x10 + 472 x0*x11 + 86 x1^2 + 184 x1*x2 + 92 x1*x3
      + 112 x1*x4 + 56 x1*x5 + 96 x1*x6 + 48 x1*x7 + 56 x1*x8 + 28 x1*x9
      + 472 x1*x10 + 236 x1*x11 + 608 x2^2 + 608 x2*x3 + 320 x2*x4 + 160 x2*x5
      + 400 x2*x6 + 200 x2*x7 + 256 x2*x8 + 128 x2*x9 + 992 x2*x10 + 496 x2*x11
      + 152 x3^2 + 160 x3*x4 + 80 x3*x5 + 200 x3*x6 + 100 x3*x7 + 128 x3*x8
      + 64 x3*x9 + 496 x3*x10 + 248 x3*x11 + 176 x4^2 + 176 x4*x5 + 704 x4*x6
      + 352 x4*x7 + 32 x4*x8 + 16 x4*x9 + 608 x4*x10 + 304 x4*x11 + 44 x5^2
      + 352 x5*x6 + 176 x5*x7 + 16 x5*x8 + 8 x5*x9 + 304 x5*x10 + 152 x5*x11
      + 2528 x6^2 + 2528 x6*x7 + 480 x6*x8 + 240 x6*x9 + 1344 x6*x10
      + 672 x6*x11 + 632 x7^2 + 240 x7*x8 + 120 x7*x9 + 672 x7*x10 + 336 x7*x11
      + 808 x8^2 + 808 x8*x9 + 512 x8*x10 + 256 x8*x11 + 202 x9^2 + 256 x9*x10
      + 128 x9*x11 + 1224 x10^2 + 1224 x10*x11 + 306 x11^2 ]/2
Subject To
 c0: 2 x0 + x1 + 2 x2 + x3 + 2 x4 + x5 + 2 x6 + x7 + 2 x8 + x9 + 2 x10 + x11 = 
     3

Bounds
 0 <= x0 <= 1
 0 <= x1 <= 1
 0 <= x2 <= 1
 0 <= x3 <= 1
 0 <= x4 <= 1
 0 <= x5 <= 1
 0 <= x6 <= 1
 0 <= x7 <= 1
 0 <= x8 <= 1
 0 <= x9 <= 1
 0 <= x10 <= 1
 0 <= x11 <= 1

Binaries
 x0 x1 x2 x3 x4 x5 x6 x7 x8 x9 x10 x11
End
